p cnf 50 15
x 2 4 -7 -8 -12 -13 -15 -16 17 18 19 -20 -21 22 24 -25 28 -31 -33 34 -41 42 -43 45 -47 49 -50 0
x -3 5 11 15 -16 19 22 24 -27 -28 29 -31 32 -34 37 44 45 -47 -48 0
x 1 -3 5 7 -9 10 -12 -13 14 15 -17 -20 21 22 -23 -26 -30 33 -34 35 -40 -44 -46 -47 49 50 0
x -1 5 10 -11 12 -15 18 25 -26 27 30 31 -32 -34 35 36 -40 43 44 46 -48 0
x 1 4 -5 -8 9 -12 14 15 18 23 -24 -26 -27 29 -30 32 33 34 36 -38 42 -44 45 -46 -47 -48 50 0
x -3 -4 -5 7 8 18 -19 -23 30 -32 -34 35 37 38 39 40 42 -43 -45 46 47 0
x -1 -2 5 7 8 -9 -11 -16 18 -20 25 -30 -36 -38 -39 -42 44 -46 -48 -50 0
x -2 -3 12 -14 19 -23 24 -25 27 28 -30 -31 32 -35 38 -40 43 46 47 -48 50 0
x -3 4 6 9 -10 12 -13 -15 19 21 -24 27 30 33 36 37 39 43 44 46 -47 0
x 1 -3 5 6 10 -11 12 -17 21 -22 24 -25 26 -27 -29 -30 -32 33 -34 -35 36 37 40 -41 -48 49 50 0
x -1 2 5 -6 -8 9 -10 11 -13 14 -15 -17 -18 24 -27 -28 -30 -32 35 -36 37 -39 41 -42 43 -45 46 -47 48 50 0
x 1 -2 -5 -6 9 10 -11 -13 15 -16 17 -18 19 -21 23 -25 26 -35 -37 39 -40 42 -43 44 45 48 49 -50 0
x -2 -3 4 -7 9 11 12 13 14 -15 16 17 -18 19 22 -23 28 30 31 33 -34 37 38 40 43 -46 -48 49 0
x -2 3 -5 -11 -14 -15 16 18 19 21 24 -27 -29 32 33 -35 37 -39 -41 42 -44 45 -46 47 0
x -1 -4 6 10 -11 -15 17 -19 -20 21 22 23 25 26 -29 31 -33 -37 -38 41 -43 45 -47 49 -50 0
g -10